p cnf 282 1027
e 1 2 3 4 5 6 7 8 9 10 11 12 13 14 15 16 18 19 20 21 22 23 24 25 26 27 28 29 30 31 32 33 34 35 36 37 38 39 40 42 43 44 45 46 47 48 49 50 52 53 54 55 57 58 59 60 61 62 0
a 17 41 51 56 0
e 63 64 65 66 67 68 69 70 71 72 73 74 75 76 77 78 79 80 81 82 83 84 85 86 87 88 89 90 91 92 93 94 95 96 97 98 99 100 101 102 103 104 105 106 107 108 109 110 111 112 113 114 115 116 117 118 119 120 121 122 123 124 125 126 127 128 129 130 131 132 133 134 135 136 137 138 139 140 141 142 143 144 145 146 147 148 149 150 151 152 153 154 155 156 157 158 159 160 161 162 163 164 165 166 167 168 169 170 171 172 173 174 175 176 177 178 179 180 181 182 183 184 185 186 187 188 189 190 191 192 193 194 195 196 197 198 199 200 201 202 203 204 205 206 207 208 209 210 211 212 213 214 215 216 217 218 219 220 221 222 223 224 225 226 227 228 229 230 231 232 233 234 235 236 237 238 239 240 241 242 243 244 245 246 247 248 249 250 251 252 253 254 255 256 257 258 259 260 261 262 263 264 265 266 267 268 269 270 271 272 273 274 275 276 277 278 279 280 281 282 0
-282 0
-281 -274 -260 -236 282 0
281 -235 0
281 -280 0
281 -62 0
281 -3 0
281 -1 0
-279 -272 -258 -233 280 0
279 -278 0
279 -79 0
279 -80 0
279 -81 0
279 -82 0
-277 -276 -275 278 0
277 -132 0
277 -133 0
277 -122 0
277 -123 0
277 -48 0
277 -39 0
277 -16 0
277 -15 0
277 -14 0
277 -13 0
277 -10 0
276 -119 0
276 -120 0
276 -129 0
276 -130 0
276 -49 0
276 -43 0
276 -26 0
276 -25 0
276 -24 0
276 -23 0
276 -20 0
275 -116 0
275 -117 0
275 -126 0
275 -127 0
275 -50 0
275 -46 0
275 -35 0
275 -34 0
275 -33 0
275 -32 0
275 -29 0
274 -273 0
274 -235 0
274 -62 0
274 -3 0
274 -2 0
-272 -265 -250 -215 273 0
272 -268 0
272 -271 0
-270 -269 -208 -207 -206 271 0
270 -158 0
270 -204 0
270 -79 0
270 -80 0
270 -81 0
270 -82 0
269 -135 0
269 -246 0
269 -79 0
269 -80 0
269 -81 0
269 -82 0
-267 -266 -221 -220 -219 268 0
267 -93 0
267 -255 0
267 -79 0
267 -80 0
267 -81 0
267 -82 0
266 -104 0
266 -227 0
266 -79 0
266 -80 0
266 -81 0
266 -82 0
265 -264 0
265 -79 0
265 -80 0
265 -81 0
265 -82 0
-263 -262 -261 264 0
263 -144 0
263 -145 0
263 -90 0
263 -91 0
263 -59 0
263 -55 0
263 -48 0
263 -39 0
263 -16 0
263 -15 0
263 -10 0
262 -141 0
262 -142 0
262 -87 0
262 -88 0
262 -60 0
262 -57 0
262 -49 0
262 -43 0
262 -26 0
262 -25 0
262 -20 0
261 -84 0
261 -85 0
261 -138 0
261 -139 0
261 -61 0
261 -58 0
261 -50 0
261 -46 0
261 -35 0
261 -34 0
261 -29 0
260 -259 0
260 -235 0
260 -62 0
260 -2 0
260 -1 0
-258 -250 -241 -196 259 0
258 -253 0
258 -257 0
-226 -225 -224 -256 -254 257 0
256 -255 0
256 -114 0
256 -79 0
256 -80 0
256 -81 0
256 -82 0
-231 -230 -229 255 0
254 -222 0
254 -147 0
254 -79 0
254 -80 0
254 -81 0
254 -82 0
-252 -251 -185 -184 -183 253 0
252 -177 0
252 -153 0
252 -79 0
252 -80 0
252 -81 0
252 -82 0
251 -242 0
251 -135 0
251 -79 0
251 -80 0
251 -81 0
251 -82 0
250 -245 0
250 -249 0
-203 -202 -201 -248 -247 249 0
248 -209 0
248 -164 0
248 -79 0
248 -80 0
248 -81 0
248 -82 0
247 -246 0
247 -114 0
247 -79 0
247 -80 0
247 -81 0
247 -82 0
-213 -212 -211 246 0
-176 -175 -170 -244 -243 245 0
244 -186 0
244 -125 0
244 -79 0
244 -80 0
244 -81 0
244 -82 0
243 -242 0
243 -93 0
243 -79 0
243 -80 0
243 -81 0
243 -82 0
-194 -193 -192 242 0
241 -240 0
241 -79 0
241 -80 0
241 -81 0
241 -82 0
-239 -238 -237 240 0
239 -101 0
239 -102 0
239 -111 0
239 -112 0
239 -48 0
239 -39 0
239 -16 0
239 -15 0
239 -14 0
239 -13 0
239 -10 0
238 -98 0
238 -99 0
238 -108 0
238 -109 0
238 -49 0
238 -43 0
238 -26 0
238 -25 0
238 -24 0
238 -23 0
238 -20 0
237 -95 0
237 -96 0
237 -105 0
237 -106 0
237 -50 0
237 -46 0
237 -35 0
237 -34 0
237 -33 0
237 -32 0
237 -29 0
236 -234 0
236 -235 0
236 -3 0
236 -2 0
236 -1 0
3 2 1 62 235 0
-233 -215 -196 -83 234 0
233 -218 0
233 -232 0
-231 -230 -229 -228 -223 232 0
231 -125 0
231 -181 0
231 -79 0
231 -80 0
231 -81 0
231 -82 0
230 -174 0
230 -164 0
230 -79 0
230 -80 0
230 -81 0
230 -82 0
229 -190 0
229 -79 0
229 -80 0
229 -81 0
229 -82 0
228 -227 0
228 -174 0
228 -79 0
228 -80 0
228 -81 0
228 -82 0
-226 -225 -224 227 0
226 -125 0
226 -147 0
226 -79 0
226 -80 0
226 -81 0
226 -82 0
225 -190 0
225 -114 0
225 -79 0
225 -80 0
225 -81 0
225 -82 0
224 -164 0
224 -79 0
224 -80 0
224 -81 0
224 -82 0
223 -222 0
223 -181 0
223 -79 0
223 -80 0
223 -81 0
223 -82 0
-221 -220 -219 222 0
221 -104 0
221 -164 0
221 -79 0
221 -80 0
221 -81 0
221 -82 0
220 -93 0
220 -190 0
220 -79 0
220 -80 0
220 -81 0
220 -82 0
219 -125 0
219 -79 0
219 -80 0
219 -81 0
219 -82 0
-217 -216 -159 -154 -149 218 0
217 -198 0
217 -158 0
217 -79 0
217 -80 0
217 -81 0
217 -82 0
216 -137 0
216 -153 0
216 -79 0
216 -80 0
216 -81 0
216 -82 0
215 -200 0
215 -214 0
-213 -212 -211 -210 -205 214 0
213 -190 0
213 -153 0
213 -79 0
213 -80 0
213 -81 0
213 -82 0
212 -174 0
212 -147 0
212 -79 0
212 -80 0
212 -81 0
212 -82 0
211 -181 0
211 -79 0
211 -80 0
211 -81 0
211 -82 0
210 -209 0
210 -190 0
210 -79 0
210 -80 0
210 -81 0
210 -82 0
-208 -207 -206 209 0
208 -135 0
208 -181 0
208 -79 0
208 -80 0
208 -81 0
208 -82 0
207 -158 0
207 -147 0
207 -79 0
207 -80 0
207 -81 0
207 -82 0
206 -153 0
206 -79 0
206 -80 0
206 -81 0
206 -82 0
205 -174 0
205 -204 0
205 -79 0
205 -80 0
205 -81 0
205 -82 0
-203 -202 -201 204 0
203 -153 0
203 -164 0
203 -79 0
203 -80 0
203 -81 0
203 -82 0
202 -114 0
202 -181 0
202 -79 0
202 -80 0
202 -81 0
202 -82 0
201 -147 0
201 -79 0
201 -80 0
201 -81 0
201 -82 0
-136 -115 -94 -199 -197 200 0
199 -198 0
199 -104 0
199 -79 0
199 -80 0
199 -81 0
199 -82 0
-168 -167 -166 198 0
197 -160 0
197 -125 0
197 -79 0
197 -80 0
197 -81 0
197 -82 0
196 -169 0
196 -195 0
-194 -193 -192 -191 -182 195 0
194 -190 0
194 -158 0
194 -79 0
194 -80 0
194 -81 0
194 -82 0
193 -104 0
193 -181 0
193 -79 0
193 -80 0
193 -81 0
193 -82 0
192 -174 0
192 -79 0
192 -80 0
192 -81 0
192 -82 0
191 -186 0
191 -190 0
191 -79 0
191 -80 0
191 -81 0
191 -82 0
-189 -188 -187 190 0
189 -74 0
189 -75 0
189 -122 0
189 -123 0
189 -39 0
189 -38 0
189 -16 0
189 -15 0
189 -14 0
189 -13 0
189 -11 0
188 -70 0
188 -71 0
188 -119 0
188 -120 0
188 -43 0
188 -42 0
188 -26 0
188 -25 0
188 -24 0
188 -23 0
188 -21 0
187 -65 0
187 -116 0
187 -117 0
187 -66 0
187 -46 0
187 -45 0
187 -35 0
187 -34 0
187 -33 0
187 -32 0
187 -30 0
-185 -184 -183 186 0
185 -104 0
185 -153 0
185 -79 0
185 -80 0
185 -81 0
185 -82 0
184 -135 0
184 -174 0
184 -79 0
184 -80 0
184 -81 0
184 -82 0
183 -158 0
183 -79 0
183 -80 0
183 -81 0
183 -82 0
182 -177 0
182 -181 0
182 -79 0
182 -80 0
182 -81 0
182 -82 0
-180 -179 -178 181 0
180 -74 0
180 -75 0
180 -144 0
180 -145 0
180 -55 0
180 -39 0
180 -38 0
180 -16 0
180 -15 0
180 -13 0
180 -11 0
179 -70 0
179 -71 0
179 -141 0
179 -142 0
179 -57 0
179 -43 0
179 -42 0
179 -26 0
179 -25 0
179 -23 0
179 -21 0
178 -65 0
178 -66 0
178 -138 0
178 -139 0
178 -58 0
178 -46 0
178 -45 0
178 -35 0
178 -34 0
178 -32 0
178 -30 0
-176 -175 -170 177 0
176 -125 0
176 -158 0
176 -79 0
176 -80 0
176 -81 0
176 -82 0
175 -93 0
175 -174 0
175 -79 0
175 -80 0
175 -81 0
175 -82 0
-173 -172 -171 174 0
173 -101 0
173 -102 0
173 -74 0
173 -75 0
173 -40 0
173 -39 0
173 -38 0
173 -16 0
173 -14 0
173 -13 0
173 -11 0
172 -98 0
172 -99 0
172 -70 0
172 -71 0
172 -44 0
172 -43 0
172 -42 0
172 -26 0
172 -24 0
172 -23 0
172 -21 0
171 -95 0
171 -96 0
171 -65 0
171 -66 0
171 -47 0
171 -46 0
171 -45 0
171 -35 0
171 -33 0
171 -32 0
171 -30 0
170 -104 0
170 -79 0
170 -80 0
170 -81 0
170 -82 0
-168 -167 -166 -165 -148 169 0
168 -135 0
168 -164 0
168 -79 0
168 -80 0
168 -81 0
168 -82 0
167 -93 0
167 -147 0
167 -79 0
167 -80 0
167 -81 0
167 -82 0
166 -114 0
166 -79 0
166 -80 0
166 -81 0
166 -82 0
165 -160 0
165 -164 0
165 -79 0
165 -80 0
165 -81 0
165 -82 0
-163 -162 -161 164 0
163 -111 0
163 -112 0
163 -122 0
163 -123 0
163 -48 0
163 -40 0
163 -39 0
163 -38 0
163 -16 0
163 -14 0
163 -13 0
162 -108 0
162 -109 0
162 -119 0
162 -120 0
162 -49 0
162 -44 0
162 -43 0
162 -42 0
162 -26 0
162 -24 0
162 -23 0
161 -105 0
161 -106 0
161 -116 0
161 -117 0
161 -50 0
161 -47 0
161 -46 0
161 -45 0
161 -35 0
161 -33 0
161 -32 0
-159 -154 -149 160 0
159 -158 0
159 -114 0
159 -79 0
159 -80 0
159 -81 0
159 -82 0
-157 -156 -155 158 0
157 -101 0
157 -102 0
157 -132 0
157 -133 0
157 -52 0
157 -48 0
157 -39 0
157 -38 0
157 -15 0
157 -14 0
157 -13 0
156 -98 0
156 -99 0
156 -129 0
156 -130 0
156 -53 0
156 -49 0
156 -43 0
156 -42 0
156 -25 0
156 -24 0
156 -23 0
155 -95 0
155 -96 0
155 -126 0
155 -127 0
155 -54 0
155 -50 0
155 -46 0
155 -45 0
155 -34 0
155 -33 0
155 -32 0
154 -93 0
154 -153 0
154 -79 0
154 -80 0
154 -81 0
154 -82 0
-152 -151 -150 153 0
152 -144 0
152 -145 0
152 -132 0
152 -133 0
152 -55 0
152 -48 0
152 -40 0
152 -39 0
152 -38 0
152 -16 0
152 -13 0
151 -141 0
151 -142 0
151 -129 0
151 -130 0
151 -57 0
151 -49 0
151 -44 0
151 -43 0
151 -42 0
151 -26 0
151 -23 0
150 -126 0
150 -127 0
150 -138 0
150 -139 0
150 -58 0
150 -50 0
150 -47 0
150 -46 0
150 -45 0
150 -35 0
150 -32 0
149 -135 0
149 -79 0
149 -80 0
149 -81 0
149 -82 0
148 -137 0
148 -147 0
148 -79 0
148 -80 0
148 -81 0
148 -82 0
-146 -143 -140 147 0
146 -144 0
146 -145 0
146 -111 0
146 -112 0
146 -55 0
146 -48 0
146 -39 0
146 -38 0
146 -16 0
146 -15 0
146 -13 0
-18 56 145 0
-19 -56 144 0
143 -141 0
143 -142 0
143 -108 0
143 -109 0
143 -57 0
143 -49 0
143 -43 0
143 -42 0
143 -26 0
143 -25 0
143 -23 0
-27 56 142 0
-28 -56 141 0
140 -105 0
140 -106 0
140 -138 0
140 -139 0
140 -58 0
140 -50 0
140 -46 0
140 -45 0
140 -35 0
140 -34 0
140 -32 0
-36 56 139 0
-37 -56 138 0
-136 -115 -94 137 0
136 -125 0
136 -135 0
136 -79 0
136 -80 0
136 -81 0
136 -82 0
-134 -131 -128 135 0
134 -73 0
134 -132 0
134 -76 0
134 -133 0
134 -48 0
134 -38 0
134 -16 0
134 -15 0
134 -14 0
134 -13 0
134 -12 0
-4 51 133 0
-8 -51 132 0
131 -68 0
131 -69 0
131 -129 0
131 -130 0
131 -49 0
131 -42 0
131 -26 0
131 -25 0
131 -24 0
131 -23 0
131 -22 0
-7 -51 130 0
-5 51 129 0
128 -63 0
128 -64 0
128 -126 0
128 -127 0
128 -50 0
128 -45 0
128 -35 0
128 -34 0
128 -33 0
128 -32 0
128 -31 0
-6 51 127 0
-9 -51 126 0
-124 -121 -118 125 0
124 -90 0
124 -91 0
124 -122 0
124 -123 0
124 -59 0
124 -52 0
124 -48 0
124 -39 0
124 -38 0
124 -15 0
124 -14 0
-18 51 123 0
-19 -51 122 0
121 -119 0
121 -120 0
121 -87 0
121 -88 0
121 -60 0
121 -53 0
121 -49 0
121 -43 0
121 -42 0
121 -25 0
121 -24 0
-27 51 120 0
-28 -51 119 0
118 -116 0
118 -117 0
118 -84 0
118 -85 0
118 -61 0
118 -54 0
118 -50 0
118 -46 0
118 -45 0
118 -34 0
118 -33 0
-36 51 117 0
-37 -51 116 0
115 -104 0
115 -114 0
115 -79 0
115 -80 0
115 -81 0
115 -82 0
-113 -110 -107 114 0
113 -73 0
113 -111 0
113 -112 0
113 -76 0
113 -52 0
113 -48 0
113 -38 0
113 -15 0
113 -14 0
113 -13 0
113 -12 0
-4 41 112 0
-8 -41 111 0
110 -68 0
110 -69 0
110 -108 0
110 -109 0
110 -53 0
110 -49 0
110 -42 0
110 -25 0
110 -24 0
110 -23 0
110 -22 0
-5 41 109 0
-7 -41 108 0
107 -63 0
107 -64 0
107 -105 0
107 -106 0
107 -54 0
107 -50 0
107 -45 0
107 -34 0
107 -33 0
107 -32 0
107 -31 0
-6 41 106 0
-9 -41 105 0
-103 -100 -97 104 0
103 -101 0
103 -102 0
103 -90 0
103 -91 0
103 -59 0
103 -48 0
103 -39 0
103 -38 0
103 -16 0
103 -15 0
103 -14 0
-18 41 102 0
-19 -41 101 0
100 -98 0
100 -99 0
100 -87 0
100 -88 0
100 -60 0
100 -49 0
100 -43 0
100 -42 0
100 -26 0
100 -25 0
100 -24 0
-27 41 99 0
-28 -41 98 0
97 -95 0
97 -96 0
97 -84 0
97 -85 0
97 -61 0
97 -50 0
97 -46 0
97 -45 0
97 -35 0
97 -34 0
97 -33 0
-36 41 96 0
-37 -41 95 0
94 -93 0
94 -79 0
94 -80 0
94 -81 0
94 -82 0
-92 -89 -86 93 0
92 -73 0
92 -76 0
92 -90 0
92 -91 0
92 -59 0
92 -48 0
92 -38 0
92 -16 0
92 -15 0
92 -14 0
92 -12 0
-8 -56 91 0
-4 56 90 0
89 -68 0
89 -69 0
89 -87 0
89 -88 0
89 -60 0
89 -49 0
89 -42 0
89 -26 0
89 -25 0
89 -24 0
89 -22 0
-7 -56 88 0
-5 56 87 0
86 -63 0
86 -64 0
86 -84 0
86 -85 0
86 -61 0
86 -50 0
86 -45 0
86 -35 0
86 -34 0
86 -33 0
86 -31 0
-9 -56 85 0
-6 56 84 0
83 -78 0
83 -79 0
83 -80 0
83 -81 0
83 -82 0
-7 9 82 0
-8 7 81 0
-6 5 80 0
-5 4 79 0
-77 -72 -67 78 0
77 -73 0
77 -74 0
77 -75 0
77 -76 0
77 -16 0
77 -15 0
77 -14 0
77 -13 0
77 -12 0
77 -11 0
77 -10 0
-18 17 76 0
-4 17 75 0
-8 -17 74 0
-17 -19 73 0
72 -68 0
72 -69 0
72 -70 0
72 -71 0
72 -26 0
72 -25 0
72 -24 0
72 -23 0
72 -22 0
72 -21 0
72 -20 0
-5 17 71 0
-7 -17 70 0
-27 17 69 0
-17 -28 68 0
67 -63 0
67 -64 0
67 -65 0
67 -66 0
67 -35 0
67 -34 0
67 -33 0
67 -32 0
67 -31 0
67 -30 0
67 -29 0
-9 -17 66 0
-6 17 65 0
-36 17 64 0
-17 -37 63 0
